c 
p cnf 10 40
-7 4 10 0
-5 0
10 6 3 0
-5 -1 -6 4 0
1 -9 0
-1 -5 2 -9 0
7 -10 8 -3 5 0
-3 0
-1 -8 -6 3 0
-3 -5 0
9 0
5 0
2 -1 10 0
-5 3 0
5 -3 -8 -1 0
-2 -6 7 0
9 3 2 1 5 0
2 -7 0
-8 -9 -1 0
6 8 -2 -7 3 0
-8 0
4 7 0
-8 10 -7 0
5 3 9 0
1 -7 -2 0
6 9 0
10 -1 9 0
9 0
3 -9 1 -6 -8 0
7 0
6 1 0
-9 2 1 0
-1 -4 10 6 -5 0
9 -10 5 7 0
-1 -6 10 8 0
10 -5 2 0
2 1 6 0
-7 5 -6 -9 0
-9 0
-1 -6 8 4 -9 0
